NAME :  IRP
COMMENT : 
TYPE :  CVRP
DIMENSION : 	5
EDGE_WEIGHT_TYPE : 	EUC_2D
CAPACITY : 	190
NODE_COORD_SECTION
1	444	237
2	152	180
3	459	282
4	269	455
5	312	266
DEMAND_SECTION
1	0
2	174
3	150
4	126
5	189
DEPOT_SECTION
	1
	-1
EOF
